179,20
28,82
181,4
75,99
69,33
144,53
126,49
187,68
64,27
87,20
171,7
148,82
158,58
63,27
83,79
39,12
72,41
50,33
22,7
197,55
93,94
139,89
103,50
172,4
141,21
126,53
75,4
164,62
95,64
102,18
138,31
48,68
38,55
118,25
171,19
107,7
83,53
60,14
78,36
43,71
188,98
54,66
103,72
196,7
38,25
99,45
76,67
24,87
163,32
181,65
